NAME : pr 10 2024-03-25
COMMENT : 10-city problem (Random Generated)
TYPE : TSP
DIMENSION : 10
EDGE_WEIGHT_TYPE : EUC_2D
NODE_COORD_SECTION
1 5181.1274 5692.0072
2 79.9585 3699.7589
3 3851.7411 1276.8944
4 7617.4200 966.5212
5 4154.4847 8842.1278
6 5146.9466 769.3716
7 8372.1427 2911.7710
8 9979.2474 3527.3293
9 3198.9502 4539.0179
10 542.9243 4191.4121
